5	4
4  3 2 2 3 8 4 5 3 1 10 2 8 4 7 2 1 4 4 6 3 2 6 3 8 4 9
4  3 1 3 2 7 3 9 3 1 5 3 6 4 4 3 1 11 2 10 4 7 2 1 8 3 5
5  3 1 5 2 9 3 4 3 1 2 2 4 4 6 3 1 8 2 12 3 9 2 3 6 4 8 3 2 9 3 7 4 10
3  3 1 9 2 5 3 6 3 1 8 3 6 4 4 3 1 5 2 8 3 4
4  3 1 4 2 9 4 8 3 2 6 3 9 4 10 2 3 7 4 9 3 1 10 2 9 4 7